sat
(:eliminated-applications 2
 :eliminated-vars         1
 :max-memory              18.45
 :memory                  18.21
 :nlsat-propagations      5
 :nlsat-stages            3
 :num-allocs              29230
 :rlimit-count            108351
 :time                    0.09
 :total-time              0.10)
